SEED : -7774149631895688242
RATIO : 50
NAME : eil76.opt.tour
COMMENT : Tour result for eil76.tsp (538.0)
TYPE : TOUR
DIMENSION : 76
TOUR_SECTION
41
43
42
64
22
62
1
73
33
63
16
3
44
32
9
39
72
58
12
40
17
51
6
68
4
75
76
26
67
46
34
52
27
45
29
48
30
2
74
28
61
21
47
36
69
71
60
70
20
37
5
15
57
13
54
19
8
7
35
53
14
59
11
66
65
38
10
31
55
25
50
18
24
49
23
56
-1
EOF